original problem has 168974 variables (168974 bin, 0 int, 0 impl, 0 cont) and 167661 constraints
1/1 feasible solution given by solution candidate storage, new primal bound 4.270000e+02

presolving:
(round 1, fast)       10594 del vars, 9934 del conss, 0 add conss, 10138 chg bounds, 115 chg sides, 225 chg coeffs, 0 upgd conss, 0 impls, 58609 clqs
(round 2, fast)       11090 del vars, 14407 del conss, 0 add conss, 10402 chg bounds, 131 chg sides, 232 chg coeffs, 0 upgd conss, 0 impls, 62554 clqs
   (2.3s) running MILP presolver
   (4.0s) MILP presolver (4 rounds): 159 aggregations, 0 fixings, 0 bound changes
(round 3, medium)     11298 del vars, 14423 del conss, 0 add conss, 10405 chg bounds, 131 chg sides, 232 chg coeffs, 0 upgd conss, 0 impls, 62270 clqs
(round 4, fast)       11298 del vars, 14592 del conss, 0 add conss, 10405 chg bounds, 131 chg sides, 232 chg coeffs, 0 upgd conss, 0 impls, 62865 clqs
(round 5, exhaustive) 11298 del vars, 18930 del conss, 0 add conss, 10405 chg bounds, 131 chg sides, 232 chg coeffs, 0 upgd conss, 0 impls, 62865 clqs
(round 6, exhaustive) 11306 del vars, 18938 del conss, 0 add conss, 10405 chg bounds, 131 chg sides, 232 chg coeffs, 145581 upgd conss, 0 impls, 62935 clqs
(round 7, medium)     12951 del vars, 21164 del conss, 3869 add conss, 10405 chg bounds, 726 chg sides, 42798 chg coeffs, 145581 upgd conss, 0 impls, 68442 clqs
(round 8, exhaustive) 12952 del vars, 22322 del conss, 4015 add conss, 10405 chg bounds, 747 chg sides, 42897 chg coeffs, 145581 upgd conss, 0 impls, 68508 clqs
(round 9, exhaustive) 13097 del vars, 22467 del conss, 4015 add conss, 10405 chg bounds, 747 chg sides, 49297 chg coeffs, 145581 upgd conss, 0 impls, 68508 clqs
presolving (10 rounds: 10 fast, 7 medium, 5 exhaustive):
 13156 deleted vars, 22469 deleted constraints, 4037 added constraints, 10405 tightened bounds, 0 added holes, 779 changed sides, 55070 changed coefficients
 0 implications, 69519 cliques
presolved problem has 156043 variables (156043 bin, 0 int, 0 impl, 0 cont) and 149228 constraints
  52233 constraints of type <knapsack>
  59895 constraints of type <setppc>
    138 constraints of type <and>
   1010 constraints of type <xor>
   3140 constraints of type <linear>
  32812 constraints of type <logicor>
transformed objective value is always integral (scale: 1)
Presolving Time: 6.91
transformed 1/1 original solutions to the transformed problem space

 time | node  | left  |LP iter|LP it/n|mem/heur|mdpt |vars |cons |rows |cuts |sepa|confs|strbr|  dualbound   | primalbound  |  gap   | compl. 
  300s|     1 |     0 | 45553 |     - |  1194M |   0 | 156k| 149k| 149k|   0 |  0 |   0 |   0 | 4.040000e+02 | 4.270000e+02 |   5.69%| unknown
(node 1) LP solver hit time limit in LP 1 -- using pseudo solution instead

SCIP Status        : solving was interrupted [time limit reached]
Solving Time (sec) : 300.16
Solving Nodes      : 1
Primal Bound       : +4.27000000000000e+02 (1 solutions)
Dual Bound         : +4.04000000000000e+02
Gap                : 5.69 %
